Welcome to the CBC MILP Solver
Version: Devel (unstable)
Build Date: Feb  6 2022
command line - -import /home/danilo/psp-janniele/J30/j3052/j3052_7.lp -timeM elapsed -seconds 10800 -solve -quit (default strategy 1)
seconds was changed from 1e+08 to 10800
Continuous objective value is 0 - 0.112404 seconds
Cgl0002I 20 variables fixed
Cgl0003I 0 fixed, 0 tightened bounds, 10 strengthened rows, 0 substitutions
Cgl0003I 0 fixed, 0 tightened bounds, 10 strengthened rows, 0 substitutions
Cgl0003I 0 fixed, 0 tightened bounds, 10 strengthened rows, 0 substitutions
Cgl0003I 0 fixed, 0 tightened bounds, 8 strengthened rows, 0 substitutions
Cgl0003I 0 fixed, 0 tightened bounds, 8 strengthened rows, 0 substitutions
Cgl0003I 0 fixed, 0 tightened bounds, 8 strengthened rows, 0 substitutions
Cgl0003I 0 fixed, 0 tightened bounds, 7 strengthened rows, 0 substitutions
Cgl0003I 0 fixed, 0 tightened bounds, 7 strengthened rows, 0 substitutions
Cgl0003I 0 fixed, 0 tightened bounds, 6 strengthened rows, 0 substitutions
Cgl0004I processed model has 228 rows, 711 columns (711 integer (711 of which binary)) and 7741 elements
Coin3009W Conflict graph built in 0.026 seconds, density: 1.266%
Cgl0015I Clique Strengthening extended 0 cliques, 0 were dominated
Cbc0045I No integer variables out of 711 objects (711 integer) have costs
Cbc0045I branch on satisfied N create fake objective Y random cost Y
Cbc0038I Initial state - 43 integers unsatisfied sum - 12.4209
Cbc0038I Pass   1: suminf.    2.41392 (15) obj. 0 iterations 39
Cbc0038I Pass   2: suminf.    2.53556 (10) obj. 0 iterations 19
Cbc0038I Pass   3: suminf.    2.22604 (10) obj. 0 iterations 6
Cbc0038I Pass   4: suminf.    2.03583 (10) obj. 0 iterations 14
Cbc0038I Pass   5: suminf.    2.03583 (10) obj. 0 iterations 3
Cbc0038I Pass   6: suminf.    2.36890 (10) obj. 0 iterations 16
Cbc0038I Pass   7: suminf.    4.13272 (16) obj. 0 iterations 66
Cbc0038I Pass   8: suminf.    2.99939 (12) obj. 0 iterations 43
Cbc0038I Pass   9: suminf.    4.54328 (12) obj. 0 iterations 28
Cbc0038I Pass  10: suminf.    3.88943 (12) obj. 0 iterations 12
Cbc0038I Pass  11: suminf.    3.88943 (12) obj. 0 iterations 3
Cbc0038I Pass  12: suminf.    4.96031 (14) obj. 0 iterations 25
Cbc0038I Pass  13: suminf.    3.94732 (12) obj. 0 iterations 9
Cbc0038I Pass  14: suminf.    3.79347 (12) obj. 0 iterations 6
Cbc0038I Pass  15: suminf.    5.09217 (14) obj. 0 iterations 23
Cbc0038I Pass  16: suminf.    4.59217 (14) obj. 0 iterations 5
Cbc0038I Pass  17: suminf.    4.59217 (14) obj. 0 iterations 2
Cbc0038I Pass  18: suminf.    4.18741 (10) obj. 0 iterations 30
Cbc0038I Pass  19: suminf.    3.68741 (10) obj. 0 iterations 6
Cbc0038I Pass  20: suminf.    3.68741 (10) obj. 0 iterations 4
Cbc0038I Pass  21: suminf.    3.41818 (8) obj. 0 iterations 27
Cbc0038I Pass  22: suminf.    3.41818 (8) obj. 0 iterations 8
Cbc0038I Pass  23: suminf.    2.91818 (8) obj. 0 iterations 6
Cbc0038I Pass  24: suminf.    2.91818 (8) obj. 0 iterations 5
Cbc0038I Pass  25: suminf.    3.41818 (8) obj. 0 iterations 22
Cbc0038I Pass  26: suminf.    3.41818 (8) obj. 0 iterations 8
Cbc0038I Pass  27: suminf.    2.91818 (8) obj. 0 iterations 6
Cbc0038I Pass  28: suminf.    2.91818 (8) obj. 0 iterations 3
Cbc0038I Pass  29: suminf.    3.41818 (8) obj. 0 iterations 22
Cbc0038I Pass  30: suminf.    2.91818 (8) obj. 0 iterations 9
Cbc0038I Pass  31: suminf.    2.91818 (8) obj. 0 iterations 3
Cbc0038I Pass  32: suminf.    3.41818 (8) obj. 0 iterations 19
Cbc0038I Pass  33: suminf.    3.41818 (8) obj. 0 iterations 8
Cbc0038I Pass  34: suminf.    2.91818 (8) obj. 0 iterations 6
Cbc0038I Pass  35: suminf.    2.91818 (8) obj. 0 iterations 3
Cbc0038I Pass  36: suminf.    3.41818 (8) obj. 0 iterations 18
Cbc0038I Pass  37: suminf.    3.41818 (8) obj. 0 iterations 8
Cbc0038I Pass  38: suminf.    2.91818 (8) obj. 0 iterations 6
Cbc0038I Pass  39: suminf.    2.91818 (8) obj. 0 iterations 3
Cbc0038I Pass  40: suminf.    3.41818 (8) obj. 0 iterations 21
Cbc0038I Pass  41: suminf.    3.41818 (8) obj. 0 iterations 8
Cbc0038I Pass  42: suminf.    2.91818 (8) obj. 0 iterations 6
Cbc0038I Pass  43: suminf.    2.91818 (8) obj. 0 iterations 3
Cbc0038I Pass  44: suminf.    3.41818 (8) obj. 0 iterations 18
Cbc0038I Pass  45: suminf.    3.41818 (8) obj. 0 iterations 8
Cbc0038I Pass  46: suminf.    2.91818 (8) obj. 0 iterations 6
Cbc0038I Pass  47: suminf.    2.91818 (8) obj. 0 iterations 4
Cbc0038I Pass  48: suminf.    3.41818 (8) obj. 0 iterations 21
Cbc0038I Pass  49: suminf.    3.41818 (8) obj. 0 iterations 8
Cbc0038I Pass  50: suminf.    2.91818 (8) obj. 0 iterations 6
Cbc0038I Pass  51: suminf.    2.91818 (8) obj. 0 iterations 4
Cbc0038I Pass  52: suminf.    3.41818 (8) obj. 0 iterations 20
Cbc0038I Pass  53: suminf.    3.41818 (8) obj. 0 iterations 8
Cbc0038I Pass  54: suminf.    2.91818 (8) obj. 0 iterations 6
Cbc0038I Pass  55: suminf.    2.91818 (8) obj. 0 iterations 4
Cbc0038I Pass  56: suminf.    3.41818 (8) obj. 0 iterations 24
Cbc0038I Pass  57: suminf.    3.41818 (8) obj. 0 iterations 8
Cbc0038I Pass  58: suminf.    2.91818 (8) obj. 0 iterations 6
Cbc0038I Pass  59: suminf.    2.91818 (8) obj. 0 iterations 4
Cbc0038I Pass  60: suminf.    3.41818 (8) obj. 0 iterations 22
Cbc0038I Pass  61: suminf.    2.91818 (8) obj. 0 iterations 9
Cbc0038I Pass  62: suminf.    2.91818 (8) obj. 0 iterations 3
Cbc0038I Pass  63: suminf.    3.41818 (8) obj. 0 iterations 23
Cbc0038I Pass  64: suminf.    3.41818 (8) obj. 0 iterations 8
Cbc0038I Pass  65: suminf.    2.91818 (8) obj. 0 iterations 6
Cbc0038I Pass  66: suminf.    2.91818 (8) obj. 0 iterations 3
Cbc0038I Pass  67: suminf.    3.41818 (8) obj. 0 iterations 21
Cbc0038I Pass  68: suminf.    3.41818 (8) obj. 0 iterations 8
Cbc0038I Pass  69: suminf.    2.91818 (8) obj. 0 iterations 6
Cbc0038I Pass  70: suminf.    2.91818 (8) obj. 0 iterations 3
Cbc0038I Pass  71: suminf.    3.41818 (8) obj. 0 iterations 24
Cbc0038I Pass  72: suminf.    3.41818 (8) obj. 0 iterations 8
Cbc0038I Pass  73: suminf.    2.91818 (8) obj. 0 iterations 6
Cbc0038I Pass  74: suminf.    2.91818 (8) obj. 0 iterations 3
Cbc0038I Pass  75: suminf.    3.41818 (8) obj. 0 iterations 24
Cbc0038I Pass  76: suminf.    2.91818 (8) obj. 0 iterations 9
Cbc0038I Pass  77: suminf.    2.91818 (8) obj. 0 iterations 3
Cbc0038I Pass  78: suminf.    3.41818 (8) obj. 0 iterations 23
Cbc0038I Pass  79: suminf.    3.41818 (8) obj. 0 iterations 7
Cbc0038I Pass  80: suminf.    2.91818 (8) obj. 0 iterations 6
Cbc0038I Pass  81: suminf.    2.91818 (8) obj. 0 iterations 3
Cbc0038I Pass  82: suminf.    3.41818 (8) obj. 0 iterations 20
Cbc0038I Pass  83: suminf.    3.41818 (8) obj. 0 iterations 8
Cbc0038I Pass  84: suminf.    2.91818 (8) obj. 0 iterations 6
Cbc0038I Pass  85: suminf.    2.91818 (8) obj. 0 iterations 3
Cbc0038I Pass  86: suminf.    3.41818 (8) obj. 0 iterations 21
Cbc0038I Pass  87: suminf.    3.41818 (8) obj. 0 iterations 8
Cbc0038I Pass  88: suminf.    2.91818 (8) obj. 0 iterations 6
Cbc0038I Pass  89: suminf.    2.91818 (8) obj. 0 iterations 3
Cbc0038I Pass  90: suminf.    3.41818 (8) obj. 0 iterations 21
Cbc0038I Pass  91: suminf.    2.91818 (8) obj. 0 iterations 9
Cbc0038I Pass  92: suminf.    2.91818 (8) obj. 0 iterations 4
Cbc0038I Pass  93: suminf.    3.41818 (8) obj. 0 iterations 23
Cbc0038I Pass  94: suminf.    3.41818 (8) obj. 0 iterations 8
Cbc0038I Pass  95: suminf.    2.91818 (8) obj. 0 iterations 6
Cbc0038I Pass  96: suminf.    2.91818 (8) obj. 0 iterations 3
Cbc0038I Pass  97: suminf.    3.41818 (8) obj. 0 iterations 19
Cbc0038I Pass  98: suminf.    3.41818 (8) obj. 0 iterations 8
Cbc0038I Pass  99: suminf.    2.91818 (8) obj. 0 iterations 6
Cbc0038I Pass 100: suminf.    3.46046 (14) obj. 0 iterations 101
Cbc0038I No solution found this major pass
Cbc0038I Before mini branch and bound, 614 integers at bound fixed and 0 continuous
Cbc0038I Full problem 228 rows 711 columns, reduced to 52 rows 36 columns
Cbc0038I Mini branch and bound improved solution from 1.79769e+308 to 0 (1.49 seconds)
Cbc0038I After 1.49 seconds - Feasibility pump exiting with objective of 0 - took 0.43 seconds
Cbc0012I Integer solution of 0 found by feasibility pump after 0 iterations and 0 nodes (1.50 seconds)
Cbc0001I Search completed - best objective 0, took 0 iterations and 0 nodes (1.50 seconds)
Cbc0035I Maximum depth 0, 0 variables fixed on reduced cost
Cuts at root node changed objective from 0 to 0
Probing was tried 0 times and created 0 cuts of which 0 were active after adding rounds of cuts (0 seconds)
Gomory was tried 0 times and created 0 cuts of which 0 were active after adding rounds of cuts (0 seconds)
Knapsack was tried 0 times and created 0 cuts of which 0 were active after adding rounds of cuts (0 seconds)
Clique was tried 0 times and created 0 cuts of which 0 were active after adding rounds of cuts (0 seconds)
OddWheel was tried 0 times and created 0 cuts of which 0 were active after adding rounds of cuts (0 seconds)
MixedIntegerRounding2 was tried 0 times and created 0 cuts of which 0 were active after adding rounds of cuts (0 seconds)
FlowCover was tried 0 times and created 0 cuts of which 0 were active after adding rounds of cuts (0 seconds)
TwoMirCuts was tried 0 times and created 0 cuts of which 0 were active after adding rounds of cuts (0 seconds)
ZeroHalf was tried 0 times and created 0 cuts of which 0 were active after adding rounds of cuts (0 seconds)

Result - Optimal solution found
Objective value:                0
Enumerated nodes:               0
Total iterations:               0
Time (CPU seconds):             1.57149
Time (Wallclock seconds):       1.514
Total time (CPU seconds):       1.60208   (Wallclock seconds):       1.52769
